c random cnf
p cnf 50 50
18 -46 0
-28 -42 0
9 -41 0
3 -8 0
27 39 0
-11 23 0
-16 -27 0
26 -28 0
1 -31 0
-15 -32 0
-14 17 0
10 25 0
5 6 0
-7 24 0
20 23 0
-9 -12 0
19 22 0
-7 -8 0
-1 47 0
-14 -39 0
14 35 0
-12 -41 0
-6 -46 0
-12 47 0
32 -47 0
-34 45 0
-10 -14 0
8 33 0
19 -43 0
-8 31 0
12 -29 0
-7 -45 0
13 26 0
5 33 0
3 5 0
11 47 0
-21 -31 0
-40 -43 0
-14 -32 0
22 -45 0
-22 41 0
-1 17 0
25 -33 0
-5 -24 0
20 -24 0
-13 33 0
24 27 0
-7 -46 0
-11 -32 0
23 26 0
